W = 12;
H = 12;

cost = [| 3,3,3,3,3,3,3,1,1,1,1,1
        | 3,2,2,2,2,2,3,1,1,1,1,1
        | 3,2,1,1,1,2,3,1,1,1,1,1
        | 3,2,1,0,1,2,3,1,1,1,1,1
        | 3,2,1,0,1,2,3,1,1,1,1,1
        | 3,2,1,0,1,2,3,1,1,1,1,1
        | 3,2,1,0,1,2,3,1,1,1,1,1
        | 3,2,1,0,1,2,3,1,1,1,1,1
        | 3,2,1,0,1,2,3,1,1,1,1,1
        | 3,2,1,1,1,2,3,1,1,1,1,1
        | 3,2,2,2,2,2,3,1,1,1,1,1
        | 3,3,3,3,3,3,3,1,1,1,1,1
        |];
reward = [| 4,7,-1,0,0,0,3,0,0,0,0,0
          | 0,0,0,0,3,0,4,0,0,0,0,0
          | 0,0,4,0,7,0,0,0,0,4,0,0
          | 7,0,3,0,-1,-1,0,0,0,0,0,0
          | -1,-1,-1,0,3,0,0,0,0,0,0,0
          | -1,-1,0,7,0,0,7,0,0,0,0,0
          | -1,-1,0,0,0,4,-1,0,0,0,0,0
          | -1,4,4,0,0,0,-1,0,4,0,0,0
          | -1,0,-1,-1,0,3,0,5,0,0,0,0
          | 0,0,3,0,4,-1,-1,0,0,0,0,0
          | 3,0,0,0,0,-1,-1,0,0,0,8,0
          | 7,0,7,4,-1,-1,-1,0,7,0,9,0
          |];

length = 18; 
budget = 18;                  
          
